(declare-const x0 Bool)
(declare-const x1 Bool)
(declare-const x2 Bool)
(declare-const x3 Bool)
(declare-const x4 Bool)
(declare-const x5 Bool)
(declare-const x6 Bool)
(declare-const x7 Bool)
(declare-const x8 Bool)
(declare-const x9 Bool)
(declare-const y0 Real)
(declare-const y1 Real)
(declare-const y2 Real)
(declare-const y3 Real)
(declare-const y4 Real)
(declare-const y5 Real)
(declare-const y6 Real)
(declare-const y7 Real)
(declare-const y8 Real)
(declare-const y9 Real)
(declare-const y10 Real)
(declare-const y11 Real)
(declare-const y12 Real)
(declare-const y13 Real)
(declare-const y14 Real)
(declare-const y15 Real)
(declare-const y16 Real)
(declare-const y17 Real)
(declare-const y18 Real)
(declare-const y19 Real)
(declare-const y20 Real)
(declare-const y21 Real)
(declare-const y22 Real)
(declare-const y23 Real)
(declare-const y24 Real)
(declare-const y25 Real)
(declare-const y26 Real)
(declare-const y27 Real)
(declare-const y28 Real)
(declare-const y29 Real)
(declare-const y30 Real)
(declare-const y31 Real)
(declare-const y32 Real)
(declare-const y33 Real)
(declare-const y34 Real)
(declare-const y35 Real)
(declare-const y36 Real)
(declare-const y37 Real)
(declare-const y38 Real)
(declare-const y39 Real)
(declare-const y40 Real)
(declare-const y41 Real)
(declare-const y42 Real)
(declare-const y43 Real)
(declare-const y44 Real)
(declare-const y45 Real)
(declare-const y46 Real)
(declare-const y47 Real)
(declare-const y48 Real)
(assert (< y14 (+ 29 y42)))
(assert true)
(assert (= x8 x3))
(assert (and (or (= y8 y13) true) (= (+ y44 y18) 40)))
(assert (< (+ y0 y1) 71))
(assert (< 17 33))
(assert (= (+ y5 (+ 5 79)) (+ (+ 20 y34) y27)))
(assert (= x8 x2))
(assert (or (and x8 (= 68 40)) (or (and x3 x1) (= true false))))
(assert (= x3 false))
(check-sat)
